!uks pbe nori defgrid3 verytightscf

%pal nprocs 16 end

%scf maxiter 400 end

%basis
  newgto Ag "sarc-zora-tzvpp" end
  delecp Ag
  newgto F "zora-def2-qzvpp" end
  delecp F
end

*xyz 0 1
Ag 0.0000000000 0.0000000000 0.0000000000
F 0.0000000000 0.0000000000 1.9870000000
*
