!uks pbe nori defgrid3 verytightscf

%pal nprocs 16 end

%scf maxiter 400 end

%basis
  newgto Sr "sarc-zora-tzvpp" end
  delecp Sr
  newgto O "zora-def2-qzvpp" end
  delecp O
end

*xyz 0 1
Sr 0.0000000000 0.0000000000 0.0000000000
O 0.0000000000 0.0000000000 1.9050000000
*
