!uks pbe ugbs nori defgrid3 verytightscf

%pal nprocs 16 end

%scf maxiter 400 end

*xyz 0 1
Ag 0.0000000000 0.0000000000 0.0000000000
F 0.0000000000 0.0000000000 1.9870000000
*
