!uks pbe ugbs nori defgrid3 verytightscf

%pal nprocs 16 end

%scf maxiter 400 end

*xyz 0 1
I 0.0000000000 0.0000000000 0.0000000000
I 0.0000000000 0.0000000000 2.6630000000
*
