!uks pbe ugbs nori defgrid3 verytightscf

%pal nprocs 16 end

%scf maxiter 400 end

*xyz 0 2
Sr 0.0000000000 0.0000000000 0.0000000000
F 0.0000000000 0.0000000000 2.0800000000
*
