! LDA pc-4 nori grid5 finalgrid6 verytightscf
%Pal NProcs 18 End

*xyz 16 1
Ar 0.0 0.0 0.0
*