! LDA zora-def2-qzvpp nori grid5 finalgrid6 verytightscf
%Pal NProcs 18 End

*xyz 0 1
He 0.0 0.0 0.0
*