! LDA ano-rcc-qzp nori grid5 finalgrid6 verytightscf
%Pal NProcs 18 End

*xyz 34 1
Kr 0.0 0.0 0.0
*