! LDA pc-2 nori grid5 finalgrid6 verytightscf
%Pal NProcs 18 End

*xyz 8 1
Ne 0.0 0.0 0.0
*