! LDA cc-pcv5z nori grid5 finalgrid6 verytightscf
%Pal NProcs 18 End

*xyz 0 1
C 0.0000 0.0000 0.0000
O 0.0000 0.0000 1.1621
O 0.0000 0.0000 -1.1621
*