! LDA def2-tzvp nori grid5 finalgrid6 verytightscf
%Pal NProcs 18 End

*xyz 0 1
O 0.0000 0.0000 0.1173
H 0.0000 0.7572 -0.4692
H 0.0000 -0.7572 -0.4692
*