! LDA pc-3 nori grid5 finalgrid6 verytightscf
%Pal NProcs 18 End

% REL
  Method ZORA
  ModelPot 1, 0, 0, 0
  velit 137.035989
END

*xyz 0 1
C 0.0000 0.0000 0.0000
O 0.0000 0.0000 1.1621
O 0.0000 0.0000 -1.1621
*