!uks pbe nori defgrid3 verytightscf

%pal nprocs 16 end

%scf maxiter 400 end

%basis
  newgto Sr "sarc-zora-tzvpp" end
  delecp Sr
  newgto F "zora-def2-qzvpp" end
  delecp F
end

%rel
  modelpot 1, 0, 0, 0
end



*xyz 0 2
Sr 0.0000000000 0.0000000000 0.0000000000
F 0.0000000000 0.0000000000 2.0800000000
*
