
! pbe def2-qzvppd nori grid5 finalgrid6 tightscf
%pal nprocs 18 end
*xyzfile 34 1 ../xyzfiles/Kr.xyz
