! LDA cc-pcvdz nori grid5 finalgrid6 verytightscf
%Pal NProcs 18 End

% REL
  Method ZORA
  ModelPot 1, 0, 0, 0
  velit 2192.575824
END

*xyz 16 1
Ar 0.0 0.0 0.0
*