! LDA def2-qzvpp nori grid5 finalgrid6 verytightscf
%Pal NProcs 18 End

% REL
  Method ZORA
  ModelPot 1, 0, 0, 0
  velit 137.035989
END

*xyz 16 1
Ar 0.0 0.0 0.0
*