! LDA zora-def2-qzvpp nori grid5 finalgrid6 verytightscf
%Pal NProcs 18 End

% REL
  Method ZORA
  ModelPot 1, 0, 0, 0
  velit 137.035989
END

*xyz 0 1
He 0.0 0.0 0.0
*