! LDA def2-svp nori grid5 finalgrid6 verytightscf
%Pal NProcs 18 End

% REL
  Method ZORA
  ModelPot 1, 0, 0, 0
  velit 548.143956
END

*xyz 34 1
Kr 0.0 0.0 0.0
*