! LDA pc-4 nori grid5 finalgrid6 verytightscf
%Pal NProcs 18 End

% REL
  Method ZORA
  ModelPot 1, 0, 0, 0
  velit 68.5179945
END

*xyz 8 1
Ne 0.0 0.0 0.0
*