! LDA pc-4 nori grid5 finalgrid6 verytightscf
%Pal NProcs 18 End

% REL
  Method ZORA
  ModelPot 1, 0, 0, 0
  velit 274.071978
END

*xyz 8 1
Ne 0.0 0.0 0.0
*