
! pbe def2-qzvppd nori grid5 finalgrid6 tightscf
%pal nprocs 18 end

%rel
  method zora
  modelpot 1, 0, 0, 0
  c 13.703599908400001
end

*xyzfile 0 1 ../xyzfiles/He.xyz
